language Essence 1.3

letting class be function(1 --> 3, 2 --> 1, 3 --> 1, 4 --> 3, 5 --> 3, 6 --> 4, 7 --> 5, 8 --> 2)
letting deck_length be 16
letting deck_width be 49
letting length be function(1 --> 15, 2 --> 6, 3 --> 4, 4 --> 4, 5 --> 8, 6 --> 11, 7 --> 7, 8 --> 1)
letting n_classes be 5
letting n_containers be 8
letting separation be function({1, 2} --> 41, {1, 3} --> 7, {1, 5} --> 25)
letting width be function(1 --> 29, 2 --> 4, 3 --> 1, 4 --> 1, 5 --> 9, 6 --> 17, 7 --> 2, 8 --> 4)
